Geographic Exponential Decay
40 47 195 117 206 198 245 183 271 265 240 176 35 92 145 147 252 268 218 79 98 286 105 266 116 29 11 201 149 255 241 124 84 309 246 16 187 293 41 269 134
p edge 320 1266
e 0 115 5.0
e 0 86 1.0
e 1 12 2.0
e 2 51 2.0
e 3 4 1.0
e 3 220 4.0
e 3 19 6.0
e 3 218 84.0
e 4 139 6.0
e 4 228 9.0
e 4 85 13.0
e 5 40 5.0
e 5 23 8.0
e 5 242 1.0
e 5 229 6.0
e 6 190 2.0
e 7 69 3.0
e 8 63 1.0
e 9 153 1.0
e 10 262 20.0
e 10 5 7.0
e 10 251 12.0
e 10 49 18.0
e 10 101 16.0
e 10 178 12.0
e 10 196 17.0
e 11 270 97.0
e 11 170 52.0
e 11 281 45.0
e 11 308 81.0
e 11 97 54.0
e 11 217 93.0
e 11 229 17.0
e 11 102 55.0
e 11 304 38.0
e 11 184 34.0
e 11 316 77.0
e 11 125 49.0
e 11 199 62.0
e 11 253 58.0
e 11 228 52.0
e 11 143 63.0
e 11 98 7.0
e 11 282 76.0
e 11 130 27.0
e 11 175 61.0
e 11 108 65.0
e 11 23 56.0
e 11 43 92.0
e 11 185 92.0
e 11 26 20.0
e 11 207 41.0
e 11 231 94.0
e 12 161 8.0
e 12 47 70.0
e 12 278 2.0
e 13 21 2.0
e 14 301 1.0
e 15 9 4.0
e 15 74 4.0
e 16 137 47.0
e 16 173 23.0
e 16 270 6.0
e 16 37 18.0
e 16 159 25.0
e 16 161 90.0
e 16 314 47.0
e 16 179 57.0
e 16 39 60.0
e 16 183 53.0
e 16 188 89.0
e 16 130 95.0
e 16 67 79.0
e 16 82 33.0
e 16 318 3.0
e 16 142 9.0
e 16 313 61.0
e 16 255 100.0
e 16 83 48.0
e 16 288 25.0
e 16 262 34.0
e 16 266 69.0
e 16 171 14.0
e 16 138 31.0
e 16 73 7.0
e 16 68 9.0
e 16 276 82.0
e 17 165 11.0
e 17 95 4.0
e 18 262 22.0
e 18 135 6.0
e 18 268 20.0
e 18 146 13.0
e 18 163 1.0
e 18 107 4.0
e 18 299 22.0
e 20 161 1.0
e 21 283 5.0
e 22 259 4.0
e 22 269 73.0
e 23 182 12.0
e 23 99 3.0
e 24 29 48.0
e 24 289 3.0
e 25 249 5.0
e 25 135 3.0
e 25 77 1.0
e 25 3 4.0
e 27 25 12.0
e 27 182 2.0
e 28 12 1.0
e 29 138 70.0
e 29 53 84.0
e 29 92 68.0
e 29 298 61.0
e 29 8 43.0
e 29 139 15.0
e 29 239 64.0
e 29 120 22.0
e 29 61 50.0
e 29 121 60.0
e 29 237 8.0
e 29 296 34.0
e 29 303 47.0
e 29 95 95.0
e 29 52 79.0
e 29 278 16.0
e 29 34 64.0
e 29 146 46.0
e 29 27 32.0
e 29 151 6.0
e 29 307 80.0
e 29 287 98.0
e 29 160 100.0
e 29 56 13.0
e 29 134 64.0
e 29 150 52.0
e 30 96 5.0
e 30 5 8.0
e 31 72 3.0
e 31 306 8.0
e 32 302 1.0
e 33 139 10.0
e 33 293 20.0
e 33 107 11.0
e 33 197 1.0
e 34 145 43.0
e 34 61 5.0
e 34 30 8.0
e 35 201 23.0
e 35 256 63.0
e 35 61 74.0
e 35 178 61.0
e 35 292 50.0
e 35 38 8.0
e 35 142 12.0
e 35 289 76.0
e 35 274 81.0
e 35 51 79.0
e 35 124 47.0
e 35 30 67.0
e 35 242 32.0
e 35 194 70.0
e 35 36 67.0
e 35 183 14.0
e 35 135 25.0
e 35 169 2.0
e 35 93 99.0
e 35 273 69.0
e 35 24 32.0
e 35 196 84.0
e 35 308 83.0
e 35 216 28.0
e 35 161 6.0
e 35 154 13.0
e 35 65 44.0
e 40 150 1.0
e 40 206 44.0
e 40 243 2.0
e 41 24 60.0
e 41 207 39.0
e 41 81 80.0
e 41 197 56.0
e 41 270 80.0
e 41 283 44.0
e 41 64 52.0
e 41 77 40.0
e 41 181 87.0
e 41 277 26.0
e 41 123 22.0
e 41 224 59.0
e 41 67 61.0
e 41 119 50.0
e 41 42 37.0
e 41 76 44.0
e 41 89 93.0
e 41 259 5.0
e 41 135 82.0
e 41 305 60.0
e 41 229 42.0
e 41 90 25.0
e 41 111 5.0
e 41 14 79.0
e 41 171 19.0
e 41 176 59.0
e 41 98 87.0
e 42 36 1.0
e 43 307 6.0
e 44 313 2.0
e 45 138 8.0
e 46 165 2.0
e 47 161 83.0
e 47 238 54.0
e 47 277 17.0
e 47 163 1.0
e 47 88 57.0
e 47 27 39.0
e 47 261 60.0
e 47 209 38.0
e 47 19 56.0
e 47 299 45.0
e 47 254 16.0
e 47 295 1.0
e 47 46 2.0
e 47 281 69.0
e 47 43 10.0
e 47 316 87.0
e 47 176 27.0
e 47 303 100.0
e 47 306 71.0
e 47 102 33.0
e 47 148 22.0
e 47 113 93.0
e 47 136 25.0
e 47 162 100.0
e 47 273 2.0
e 47 130 88.0
e 48 114 20.0
e 48 118 18.0
e 48 267 8.0
e 48 100 20.0
e 48 64 2.0
e 48 69 4.0
e 48 224 1.0
e 50 31 3.0
e 50 131 4.0
e 52 43 3.0
e 53 257 4.0
e 54 170 1.0
e 55 217 2.0
e 55 184 2.0
e 56 45 17.0
e 56 314 17.0
e 56 181 24.0
e 56 14 14.0
e 56 41 95.0
e 56 71 17.0
e 57 285 7.0
e 57 174 9.0
e 57 225 10.0
e 57 167 3.0
e 58 4 3.0
e 59 309 68.0
e 60 130 1.0
e 62 23 1.0
e 65 155 1.0
e 66 104 11.0
e 66 3 1.0
e 66 164 9.0
e 66 96 1.0
e 70 89 1.0
e 75 173 9.0
e 75 8 3.0
e 75 71 1.0
e 75 172 4.0
e 76 79 68.0
e 78 214 1.0
e 79 120 98.0
e 79 134 100.0
e 79 259 66.0
e 79 51 53.0
e 79 47 58.0
e 79 84 68.0
e 79 48 55.0
e 79 265 14.0
e 79 200 30.0
e 79 286 17.0
e 79 190 12.0
e 79 226 43.0
e 79 156 93.0
e 79 252 47.0
e 79 187 81.0
e 79 260 70.0
e 79 176 100.0
e 79 90 41.0
e 79 266 26.0
e 79 23 47.0
e 79 125 81.0
e 79 108 12.0
e 79 250 83.0
e 79 201 50.0
e 79 272 96.0
e 79 280 84.0
e 80 153 11.0
e 80 87 1.0
e 80 175 9.0
e 80 106 2.0
e 81 9 3.0
e 84 97 89.0
e 84 82 80.0
e 84 16 52.0
e 84 170 38.0
e 84 139 93.0
e 84 128 16.0
e 84 147 2.0
e 84 119 3.0
e 84 50 45.0
e 84 7 74.0
e 84 49 70.0
e 84 107 52.0
e 84 209 45.0
e 84 239 40.0
e 84 191 48.0
e 84 164 55.0
e 84 53 73.0
e 84 123 31.0
e 84 227 46.0
e 84 169 57.0
e 84 305 27.0
e 84 22 39.0
e 84 131 43.0
e 84 87 43.0
e 84 224 29.0
e 84 67 51.0
e 85 189 10.0
e 85 205 22.0
e 85 304 15.0
e 85 10 17.0
e 85 240 100.0
e 85 260 9.0
e 89 290 1.0
e 89 213 7.0
e 91 299 6.0
e 91 102 19.0
e 91 74 7.0
e 91 194 4.0
e 91 105 59.0
e 91 76 5.0
e 91 99 20.0
e 92 145 24.0
e 92 262 26.0
e 92 93 21.0
e 92 200 3.0
e 92 101 3.0
e 92 312 35.0
e 92 139 20.0
e 92 14 9.0
e 92 12 10.0
e 92 293 55.0
e 92 213 75.0
e 92 128 51.0
e 92 291 94.0
e 92 100 77.0
e 92 129 43.0
e 92 21 3.0
e 92 256 2.0
e 92 51 92.0
e 92 130 89.0
e 92 311 77.0
e 92 56 9.0
e 92 121 36.0
e 92 63 12.0
e 92 249 80.0
e 92 120 66.0
e 92 135 41.0
e 94 170 1.0
e 98 263 55.0
e 98 208 12.0
e 98 299 23.0
e 98 112 30.0
e 98 42 66.0
e 98 38 42.0
e 98 261 37.0
e 98 228 55.0
e 98 118 15.0
e 98 131 59.0
e 98 47 84.0
e 98 247 2.0
e 98 172 14.0
e 98 13 11.0
e 98 25 69.0
e 98 45 34.0
e 98 194 26.0
e 98 101 16.0
e 98 278 4.0
e 98 88 99.0
e 98 190 55.0
e 98 220 45.0
e 98 260 94.0
e 98 76 71.0
e 98 40 13.0
e 103 311 4.0
e 104 176 17.0
e 105 231 42.0
e 105 69 41.0
e 105 111 52.0
e 105 164 67.0
e 105 261 80.0
e 105 243 95.0
e 105 214 71.0
e 105 291 28.0
e 105 60 56.0
e 105 18 53.0
e 105 235 52.0
e 105 53 88.0
e 105 207 48.0
e 105 292 89.0
e 105 55 94.0
e 105 98 22.0
e 105 112 52.0
e 105 118 34.0
e 105 282 57.0
e 105 306 26.0
e 105 313 80.0
e 105 80 65.0
e 105 217 15.0
e 105 13 88.0
e 105 120 11.0
e 105 100 32.0
e 109 13 1.0
e 109 27 4.0
e 110 205 1.0
e 110 31 1.0
e 110 281 24.0
e 110 185 6.0
e 115 257 1.0
e 116 262 11.0
e 116 12 92.0
e 116 71 90.0
e 116 141 25.0
e 116 167 22.0
e 116 176 18.0
e 116 111 22.0
e 116 204 64.0
e 116 194 5.0
e 116 298 98.0
e 116 288 4.0
e 116 131 29.0
e 116 145 77.0
e 116 130 18.0
e 116 16 91.0
e 116 108 55.0
e 116 169 22.0
e 116 23 91.0
e 116 151 51.0
e 116 94 90.0
e 116 27 75.0
e 116 152 65.0
e 116 191 31.0
e 116 291 33.0
e 116 17 49.0
e 116 259 83.0
e 116 59 65.0
e 117 124 40.0
e 117 35 91.0
e 117 248 98.0
e 117 284 87.0
e 117 154 93.0
e 117 56 35.0
e 117 220 61.0
e 117 281 29.0
e 117 100 91.0
e 117 225 76.0
e 117 43 31.0
e 117 52 63.0
e 117 94 42.0
e 117 241 96.0
e 117 25 11.0
e 117 312 70.0
e 117 108 98.0
e 117 9 46.0
e 117 292 79.0
e 117 250 74.0
e 117 214 22.0
e 117 264 78.0
e 117 266 29.0
e 117 22 44.0
e 117 298 31.0
e 117 26 18.0
e 117 36 52.0
e 118 46 12.0
e 120 134 6.0
e 120 160 16.0
e 120 87 1.0
e 120 190 47.0
e 120 73 24.0
e 120 315 18.0
e 120 136 13.0
e 120 30 6.0
e 120 182 21.0
e 120 170 40.0
e 122 179 1.0
e 124 292 81.0
e 124 7 58.0
e 124 220 26.0
e 124 139 79.0
e 124 23 61.0
e 124 262 79.0
e 124 214 71.0
e 124 58 9.0
e 124 268 24.0
e 124 312 66.0
e 124 89 35.0
e 124 265 50.0
e 124 239 91.0
e 124 234 58.0
e 124 145 64.0
e 124 85 17.0
e 124 57 4.0
e 124 305 87.0
e 124 270 93.0
e 124 293 48.0
e 124 108 11.0
e 124 152 70.0
e 124 101 54.0
e 124 13 21.0
e 124 12 59.0
e 126 94 5.0
e 126 279 5.0
e 127 175 11.0
e 127 279 1.0
e 127 125 1.0
e 127 56 17.0
e 132 50 4.0
e 133 86 1.0
e 134 204 34.0
e 134 269 87.0
e 134 298 94.0
e 134 6 9.0
e 134 239 68.0
e 134 240 82.0
e 134 84 9.0
e 134 105 74.0
e 134 152 2.0
e 134 31 12.0
e 134 83 7.0
e 134 252 55.0
e 134 281 93.0
e 134 9 80.0
e 134 155 63.0
e 134 285 2.0
e 134 76 39.0
e 134 300 4.0
e 134 66 42.0
e 134 34 32.0
e 134 307 69.0
e 134 95 7.0
e 134 284 61.0
e 134 77 34.0
e 138 316 12.0
e 140 31 2.0
e 140 248 2.0
e 143 192 9.0
e 144 283 1.0
e 145 262 98.0
e 145 108 78.0
e 145 88 9.0
e 145 249 64.0
e 145 151 33.0
e 145 251 91.0
e 145 164 15.0
e 145 22 12.0
e 145 1 82.0
e 145 18 96.0
e 145 210 93.0
e 145 25 88.0
e 145 198 13.0
e 145 91 7.0
e 145 209 72.0
e 145 195 76.0
e 145 114 90.0
e 145 161 24.0
e 145 0 32.0
e 145 51 48.0
e 145 246 90.0
e 145 47 100.0
e 145 256 74.0
e 147 151 52.0
e 147 196 79.0
e 147 267 89.0
e 147 118 50.0
e 147 273 91.0
e 147 80 82.0
e 147 162 28.0
e 147 101 82.0
e 147 183 37.0
e 147 105 39.0
e 147 163 95.0
e 147 164 64.0
e 147 269 39.0
e 147 26 25.0
e 147 176 34.0
e 147 154 35.0
e 147 286 2.0
e 147 314 74.0
e 147 75 45.0
e 147 204 89.0
e 147 270 9.0
e 147 27 100.0
e 147 274 1.0
e 147 130 74.0
e 147 55 35.0
e 147 125 58.0
e 148 150 11.0
e 148 88 1.0
e 148 245 41.0
e 149 237 69.0
e 149 226 60.0
e 149 102 18.0
e 149 206 57.0
e 149 141 79.0
e 149 194 44.0
e 149 9 76.0
e 149 200 20.0
e 149 46 75.0
e 149 310 77.0
e 149 259 75.0
e 149 106 39.0
e 149 278 54.0
e 149 212 42.0
e 149 140 51.0
e 149 255 23.0
e 149 85 72.0
e 149 243 5.0
e 149 103 43.0
e 149 289 59.0
e 149 44 53.0
e 149 202 7.0
e 149 211 70.0
e 149 252 44.0
e 149 244 49.0
e 149 42 38.0
e 149 239 58.0
e 155 58 2.0
e 155 158 3.0
e 157 109 5.0
e 159 252 88.0
e 160 129 21.0
e 160 215 15.0
e 160 131 6.0
e 160 132 3.0
e 160 290 7.0
e 163 206 11.0
e 163 27 8.0
e 163 74 5.0
e 163 288 13.0
e 165 101 5.0
e 165 293 93.0
e 166 155 4.0
e 168 190 2.0
e 176 307 51.0
e 176 256 89.0
e 176 122 91.0
e 176 48 32.0
e 176 315 30.0
e 176 220 77.0
e 176 152 15.0
e 176 166 14.0
e 176 26 99.0
e 176 97 55.0
e 176 94 40.0
e 176 300 70.0
e 176 131 10.0
e 176 100 65.0
e 176 114 57.0
e 176 318 48.0
e 176 199 32.0
e 176 55 56.0
e 176 148 42.0
e 176 25 50.0
e 176 28 76.0
e 177 152 3.0
e 180 245 54.0
e 180 55 1.0
e 183 66 16.0
e 183 139 38.0
e 183 167 76.0
e 183 116 89.0
e 183 19 93.0
e 183 48 66.0
e 183 54 93.0
e 183 135 49.0
e 183 0 2.0
e 183 293 47.0
e 183 182 24.0
e 183 50 28.0
e 183 162 69.0
e 183 208 96.0
e 183 279 84.0
e 183 288 79.0
e 183 274 55.0
e 183 75 19.0
e 183 197 35.0
e 183 251 32.0
e 183 36 16.0
e 183 308 4.0
e 183 275 1.0
e 183 47 96.0
e 186 253 5.0
e 187 72 99.0
e 187 90 10.0
e 187 317 1.0
e 187 250 9.0
e 187 159 87.0
e 187 173 46.0
e 187 190 12.0
e 187 114 8.0
e 187 282 70.0
e 187 157 11.0
e 187 193 69.0
e 187 5 51.0
e 187 315 77.0
e 187 50 69.0
e 187 106 19.0
e 187 117 65.0
e 187 0 77.0
e 187 75 81.0
e 187 54 89.0
e 187 291 8.0
e 187 48 28.0
e 187 188 9.0
e 187 205 58.0
e 187 264 51.0
e 187 297 8.0
e 187 51 28.0
e 188 102 9.0
e 188 196 4.0
e 192 152 1.0
e 192 55 10.0
e 192 43 3.0
e 194 145 44.0
e 194 124 17.0
e 195 159 94.0
e 195 61 27.0
e 195 110 92.0
e 195 249 14.0
e 195 198 16.0
e 195 315 56.0
e 195 255 86.0
e 195 278 96.0
e 195 144 16.0
e 195 50 4.0
e 195 192 13.0
e 195 300 73.0
e 195 58 39.0
e 195 299 100.0
e 195 314 3.0
e 195 301 55.0
e 195 241 54.0
e 195 199 25.0
e 195 250 35.0
e 195 73 7.0
e 195 316 60.0
e 195 93 25.0
e 195 292 40.0
e 195 101 80.0
e 195 293 8.0
e 195 263 91.0
e 198 144 86.0
e 198 108 57.0
e 198 241 61.0
e 198 93 48.0
e 198 61 72.0
e 198 311 17.0
e 198 140 33.0
e 198 194 47.0
e 198 263 97.0
e 198 69 29.0
e 198 31 51.0
e 198 88 44.0
e 198 304 89.0
e 198 157 72.0
e 198 133 34.0
e 198 161 44.0
e 198 224 92.0
e 198 100 60.0
e 198 73 55.0
e 198 32 81.0
e 198 255 4.0
e 198 44 10.0
e 198 164 74.0
e 198 126 79.0
e 198 110 38.0
e 201 213 97.0
e 201 145 21.0
e 201 77 47.0
e 201 140 68.0
e 201 40 84.0
e 201 103 62.0
e 201 275 46.0
e 201 270 89.0
e 201 86 3.0
e 201 89 37.0
e 201 233 39.0
e 201 299 55.0
e 201 297 52.0
e 201 188 50.0
e 201 96 25.0
e 201 128 90.0
e 201 169 1.0
e 201 126 66.0
e 201 80 24.0
e 201 97 45.0
e 201 104 21.0
e 201 0 71.0
e 201 280 100.0
e 201 162 18.0
e 201 318 68.0
e 202 110 1.0
e 203 156 3.0
e 203 225 1.0
e 206 211 52.0
e 206 48 100.0
e 206 289 57.0
e 206 148 8.0
e 206 12 35.0
e 206 86 95.0
e 206 45 41.0
e 206 97 98.0
e 206 104 16.0
e 206 305 5.0
e 206 137 1.0
e 206 238 73.0
e 206 24 76.0
e 206 169 77.0
e 206 88 2.0
e 206 78 86.0
e 206 30 75.0
e 206 132 18.0
e 206 140 83.0
e 206 198 71.0
e 206 115 49.0
e 206 309 2.0
e 206 131 100.0
e 206 146 46.0
e 209 72 16.0
e 209 180 19.0
e 209 146 16.0
e 209 303 3.0
e 211 286 33.0
e 211 185 6.0
e 212 6 4.0
e 218 126 14.0
e 218 34 2.0
e 218 60 85.0
e 218 177 30.0
e 218 61 6.0
e 218 311 42.0
e 218 114 36.0
e 218 86 92.0
e 218 259 62.0
e 218 227 37.0
e 218 263 29.0
e 218 80 1.0
e 218 209 42.0
e 218 40 82.0
e 218 222 98.0
e 218 175 9.0
e 218 4 4.0
e 218 33 34.0
e 218 0 85.0
e 218 229 80.0
e 218 162 59.0
e 218 124 76.0
e 218 5 37.0
e 218 231 7.0
e 218 294 15.0
e 218 156 19.0
e 219 198 69.0
e 219 211 1.0
e 221 300 1.0
e 223 271 34.0
e 227 302 5.0
e 227 219 1.0
e 230 1 1.0
e 232 109 2.0
e 233 230 1.0
e 234 59 3.0
e 234 100 1.0
e 234 190 3.0
e 235 96 3.0
e 236 159 1.0
e 240 40 59.0
e 240 41 73.0
e 240 145 48.0
e 240 177 75.0
e 240 68 96.0
e 240 156 85.0
e 240 83 91.0
e 240 6 88.0
e 240 93 89.0
e 240 32 59.0
e 240 42 55.0
e 240 307 54.0
e 240 210 59.0
e 240 211 43.0
e 240 229 7.0
e 240 162 8.0
e 240 191 72.0
e 240 202 65.0
e 240 279 31.0
e 240 47 45.0
e 240 183 92.0
e 240 51 35.0
e 240 58 76.0
e 240 308 90.0
e 240 212 58.0
e 241 99 96.0
e 241 255 54.0
e 241 303 77.0
e 241 209 8.0
e 241 258 91.0
e 241 128 82.0
e 241 277 95.0
e 241 114 27.0
e 241 81 77.0
e 241 169 2.0
e 241 23 45.0
e 241 105 85.0
e 241 224 10.0
e 241 196 10.0
e 241 162 77.0
e 241 91 81.0
e 241 31 8.0
e 241 77 24.0
e 241 132 88.0
e 241 55 20.0
e 241 63 7.0
e 241 269 14.0
e 241 179 15.0
e 241 133 31.0
e 244 300 1.0
e 244 35 21.0
e 244 85 7.0
e 245 249 29.0
e 245 104 19.0
e 245 158 52.0
e 245 286 68.0
e 245 157 81.0
e 245 114 56.0
e 245 73 34.0
e 245 268 52.0
e 245 298 91.0
e 245 49 63.0
e 245 153 12.0
e 245 231 61.0
e 245 219 74.0
e 245 318 19.0
e 245 105 91.0
e 245 136 50.0
e 245 95 46.0
e 245 67 61.0
e 245 282 82.0
e 245 7 27.0
e 245 299 9.0
e 245 122 50.0
e 245 16 55.0
e 245 182 38.0
e 245 183 66.0
e 246 194 10.0
e 246 69 4.0
e 246 232 47.0
e 246 61 100.0
e 246 70 71.0
e 246 24 21.0
e 246 66 44.0
e 246 298 14.0
e 246 28 92.0
e 246 45 63.0
e 246 250 84.0
e 246 179 36.0
e 246 304 92.0
e 246 124 61.0
e 246 310 52.0
e 246 219 6.0
e 246 146 90.0
e 246 201 61.0
e 246 272 19.0
e 246 16 34.0
e 246 251 64.0
e 246 115 83.0
e 246 152 7.0
e 246 273 94.0
e 246 248 4.0
e 246 180 35.0
e 247 236 1.0
e 252 154 70.0
e 252 213 56.0
e 252 153 87.0
e 252 30 11.0
e 252 78 20.0
e 252 74 64.0
e 252 77 82.0
e 252 118 89.0
e 252 46 56.0
e 252 216 68.0
e 252 191 48.0
e 252 303 69.0
e 252 187 97.0
e 252 280 17.0
e 252 2 100.0
e 252 178 37.0
e 252 76 57.0
e 252 196 65.0
e 252 41 1.0
e 252 156 30.0
e 252 169 43.0
e 252 237 54.0
e 252 129 31.0
e 255 37 14.0
e 255 174 41.0
e 255 165 81.0
e 255 267 87.0
e 255 216 24.0
e 255 180 59.0
e 255 287 51.0
e 255 205 45.0
e 255 82 26.0
e 255 318 32.0
e 255 199 39.0
e 255 70 46.0
e 255 52 27.0
e 255 166 66.0
e 255 184 70.0
e 255 280 74.0
e 255 217 11.0
e 255 56 42.0
e 255 233 49.0
e 255 302 61.0
e 255 69 65.0
e 255 156 83.0
e 260 16 40.0
e 265 95 20.0
e 265 132 85.0
e 265 269 11.0
e 265 278 26.0
e 265 218 18.0
e 265 192 63.0
e 265 6 15.0
e 265 83 56.0
e 265 8 29.0
e 265 253 100.0
e 265 32 7.0
e 265 85 1.0
e 265 220 93.0
e 265 242 14.0
e 265 243 65.0
e 265 151 46.0
e 265 63 41.0
e 265 216 86.0
e 265 17 10.0
e 265 18 45.0
e 265 180 62.0
e 265 202 73.0
e 265 298 34.0
e 265 137 21.0
e 265 28 21.0
e 266 46 36.0
e 266 245 21.0
e 266 65 94.0
e 266 150 69.0
e 266 191 39.0
e 266 23 14.0
e 266 47 30.0
e 266 300 54.0
e 266 246 24.0
e 266 125 100.0
e 266 48 67.0
e 266 11 84.0
e 266 183 96.0
e 266 294 36.0
e 266 35 52.0
e 266 64 95.0
e 266 241 95.0
e 266 251 87.0
e 266 43 15.0
e 266 105 20.0
e 266 127 88.0
e 266 170 93.0
e 266 178 77.0
e 266 271 46.0
e 268 102 24.0
e 268 163 19.0
e 268 281 15.0
e 268 187 31.0
e 268 96 37.0
e 268 156 33.0
e 268 254 37.0
e 268 19 7.0
e 268 179 44.0
e 268 164 49.0
e 268 35 99.0
e 268 56 77.0
e 268 103 48.0
e 268 286 5.0
e 268 168 70.0
e 268 243 63.0
e 268 176 41.0
e 268 302 37.0
e 268 97 24.0
e 268 73 70.0
e 268 146 23.0
e 268 135 32.0
e 268 1 16.0
e 268 256 47.0
e 269 102 7.0
e 269 158 20.0
e 269 151 50.0
e 269 124 93.0
e 269 277 15.0
e 269 74 7.0
e 269 211 43.0
e 269 308 69.0
e 269 76 80.0
e 269 122 77.0
e 269 141 79.0
e 269 293 10.0
e 269 199 98.0
e 269 20 45.0
e 269 281 79.0
e 269 57 30.0
e 269 62 18.0
e 269 230 36.0
e 269 289 77.0
e 269 274 1.0
e 269 160 2.0
e 269 278 29.0
e 271 154 59.0
e 271 217 99.0
e 271 245 36.0
e 271 233 3.0
e 271 235 46.0
e 271 159 94.0
e 271 276 66.0
e 271 24 62.0
e 271 83 18.0
e 271 231 83.0
e 271 200 26.0
e 271 62 23.0
e 271 173 86.0
e 271 163 75.0
e 271 25 86.0
e 271 228 12.0
e 271 248 82.0
e 271 43 42.0
e 271 246 84.0
e 271 59 37.0
e 271 273 25.0
e 271 274 28.0
e 271 84 42.0
e 271 58 19.0
e 271 93 54.0
e 281 52 31.0
e 281 257 19.0
e 281 127 37.0
e 281 84 26.0
e 281 273 15.0
e 281 32 16.0
e 281 138 13.0
e 286 3 23.0
e 286 12 12.0
e 286 4 60.0
e 286 58 31.0
e 286 75 41.0
e 286 230 85.0
e 286 26 65.0
e 286 200 91.0
e 286 86 37.0
e 286 188 25.0
e 286 223 55.0
e 286 63 27.0
e 286 189 93.0
e 286 24 59.0
e 286 52 67.0
e 286 143 87.0
e 286 105 6.0
e 286 215 27.0
e 286 132 86.0
e 286 311 18.0
e 286 28 39.0
e 286 21 20.0
e 288 94 23.0
e 288 188 8.0
e 288 62 2.0
e 293 182 6.0
e 293 178 82.0
e 293 222 82.0
e 293 316 30.0
e 293 123 22.0
e 293 306 83.0
e 293 277 62.0
e 293 221 99.0
e 293 87 1.0
e 293 13 39.0
e 293 246 9.0
e 293 313 18.0
e 293 198 5.0
e 293 288 63.0
e 293 205 15.0
e 293 284 64.0
e 293 230 62.0
e 293 106 94.0
e 293 234 15.0
e 293 5 36.0
e 295 10 17.0
e 295 59 4.0
e 295 94 6.0
e 296 165 1.0
e 296 227 5.0
e 296 57 8.0
e 297 182 3.0
e 297 26 8.0
e 304 310 4.0
e 304 17 14.0
e 304 53 6.0
e 309 129 4.0
e 309 66 56.0
e 309 111 44.0
e 309 311 28.0
e 309 52 42.0
e 309 258 46.0
e 309 306 67.0
e 309 77 31.0
e 309 87 87.0
e 309 14 88.0
e 309 170 19.0
e 309 253 76.0
e 309 317 14.0
e 309 310 50.0
e 309 267 49.0
e 309 118 17.0
e 309 307 26.0
e 309 275 11.0
e 309 104 73.0
e 309 266 64.0
e 309 205 29.0
e 309 308 87.0
e 309 19 48.0
e 309 70 13.0
e 309 168 20.0
e 310 13 15.0
e 310 204 15.0
e 310 157 17.0
e 315 180 15.0
e 315 227 22.0
e 315 78 6.0
e 315 115 41.0
e 315 37 46.0
e 315 50 35.0
e 315 243 50.0
e 315 121 23.0
e 315 109 7.0
e 315 49 49.0
e 317 274 1.0
e 317 38 4.0
e 319 220 1.0
